g3 0 1 0	# problem 3089
 132 84 1 0 84	# vars, constraints, objectives, ranges, eqns
 72 0	# nonlinear constraints, objectives
 0 0	# network constraints: nonlinear, linear
 114 0 0	# nonlinear vars in constraints, objectives, both
 0 0 0 1	# linear network variables; functions; arith, flags
 0 0 0 0 0	# discrete variables: binary, integer, nonlinear (b,c,o)
 768 12	# nonzeros in Jacobian, gradients
 0 0	# max name lengths: constraints, variables
 0 0 0 0 0	# common exprs: b,c,o,c1,o1
b
0 0 45
0 0 52
0 0 189
0 0 33
0 0 210
0 0 24
0 0 120
0 0 30
0 0 30
0 0 12234
0 0 98
0 0 656
0 0 142
0 0 420
0 0 200
0 0 13
0 0 637
0 0 24
0 0 20
0 0 25
0 0 15
0 0 25
0 0 454
0 0 256
0 0 350
0 0 48
0 0 260
0 0 21
0 0 278
0 0 12
0 0 20
0 0 50
0 0 100
0 0 30
0 0 70
0 0 20
0 0 139
0 0 400
0 0 435
0 0 37
0 0 378
0 0 124
0 0 245
0 0 125
0 0 85
0 0 14728
0 0 124
0 0 754
0 0 222
0 0 459
0 0 567
0 0 56
0 0 768
0 0 58
0 0 47
0 0 367
0 0 320
0 0 433
0 0 589
0 0 467
0 0 850
0 0 3560
0 0 400
0 0 56
0 0 436
0 0 90
0 0 100
0 0 150
0 0 250
0 0 90
0 0 150
0 0 80
0 0 64
0 0 1e+05
0 0 1e+05
0 0 1e+05
0 0 1e+05
0 0 1e+05
0 0 1e+05
0 0 34
0 0 1e+05
0 0 1e+05
0 0 1e+05
0 0 1e+05
0 0 1e+05
0 0 1e+05
0 0 126
0 0 1e+05
0 0 1e+05
0 0 1e+05
0 0 1e+05
0 0 1e+05
0 0 1e+05
0 0 28
0 0 1e+05
0 0 1e+05
0 0 1e+05
0 0 1e+05
0 0 1e+05
0 0 1e+05
0 0 100
0 0 1e+05
0 0 1e+05
0 0 1e+05
0 0 1e+05
0 0 1e+05
0 0 1e+05
0 0 55
0 0 1e+05
0 0 1e+05
0 0 1e+05
0 0 1e+05
0 0 1e+05
0 0 1e+05
0 0 1e+05
0 0 1e+05
0 0 1e+05
0 0 1e+05
0 0 1e+05
0 0 1e+05
0 0 1e+05
0 0 1e+05
0 0 1e+05
0 0 1e+05
0 0 1e+05
0 0 1e+05
0 0 1e+05
0 0 1e+05
0 0 1e+05
0 0 1e+05
0 0 1e+05
0 0 1e+05
r
4 0
4 0
4 0
4 0
4 0
4 0
4 0
4 0
4 0
4 0
4 0
4 0
4 0
4 0
4 0
4 0
4 0
4 0
4 0
4 0
4 0
4 0
4 0
4 0
4 0
4 0
4 0
4 0
4 0
4 0
4 0
4 0
4 0
4 0
4 0
4 0
4 -6016
4 -22272
4 -15744
4 -256
4 -10752
4 -6400
4 -4250
4 -3230
4 -1870
4 -84796
4 -884
4 -3332
4 -10080
4 -4914
4 -46242
4 -5418
4 -16506
4 -4284
4 -756
4 -9576
4 -8540
4 -11424
4 -3780
4 -5908
4 -50000
4 -351200
4 -14000
4 -3500
4 -15800
4 -7800
4 -4400
4 -5500
4 -8250
4 -3300
4 -4400
4 -3300
4 0
4 0
4 0
4 0
4 0
4 0
4 0
4 0
4 0
4 0
4 0
4 0
C0
o16
o54
7
o16
o2
v72
v0
o2
v73
v36
o2
v74
v42
o2
v75
v48
o2
v76
v54
o2
v77
v60
o2
v78
v66
C1
o16
o54
7
o16
o2
v72
v1
o2
v73
v37
o2
v74
v43
o2
v75
v49
o2
v76
v55
o2
v77
v61
o2
v78
v67
C2
o16
o54
7
o16
o2
v72
v2
o2
v73
v38
o2
v74
v44
o2
v75
v50
o2
v76
v56
o2
v77
v62
o2
v78
v68
C3
o16
o54
7
o16
o2
v72
v3
o2
v73
v39
o2
v74
v45
o2
v75
v51
o2
v76
v57
o2
v77
v63
o2
v78
v69
C4
o16
o54
7
o16
o2
v72
v4
o2
v73
v40
o2
v74
v46
o2
v75
v52
o2
v76
v58
o2
v77
v64
o2
v78
v70
C5
o16
o54
7
o16
o2
v72
v5
o2
v73
v41
o2
v74
v47
o2
v75
v53
o2
v76
v59
o2
v77
v65
o2
v78
v71
C6
o16
o54
7
o16
o2
v79
v6
o2
v80
v36
o2
v81
v42
o2
v82
v48
o2
v83
v54
o2
v84
v60
o2
v85
v66
C7
o16
o54
7
o16
o2
v79
v7
o2
v80
v37
o2
v81
v43
o2
v82
v49
o2
v83
v55
o2
v84
v61
o2
v85
v67
C8
o16
o54
7
o16
o2
v79
v8
o2
v80
v38
o2
v81
v44
o2
v82
v50
o2
v83
v56
o2
v84
v62
o2
v85
v68
C9
o16
o54
7
o16
o2
v79
v9
o2
v80
v39
o2
v81
v45
o2
v82
v51
o2
v83
v57
o2
v84
v63
o2
v85
v69
C10
o16
o54
7
o16
o2
v79
v10
o2
v80
v40
o2
v81
v46
o2
v82
v52
o2
v83
v58
o2
v84
v64
o2
v85
v70
C11
o16
o54
7
o16
o2
v79
v11
o2
v80
v41
o2
v81
v47
o2
v82
v53
o2
v83
v59
o2
v84
v65
o2
v85
v71
C12
o16
o54
7
o16
o2
v86
v12
o2
v87
v36
o2
v88
v42
o2
v89
v48
o2
v90
v54
o2
v91
v60
o2
v92
v66
C13
o16
o54
7
o16
o2
v86
v13
o2
v87
v37
o2
v88
v43
o2
v89
v49
o2
v90
v55
o2
v91
v61
o2
v92
v67
C14
o16
o54
7
o16
o2
v86
v14
o2
v87
v38
o2
v88
v44
o2
v89
v50
o2
v90
v56
o2
v91
v62
o2
v92
v68
C15
o16
o54
7
o16
o2
v86
v15
o2
v87
v39
o2
v88
v45
o2
v89
v51
o2
v90
v57
o2
v91
v63
o2
v92
v69
C16
o16
o54
7
o16
o2
v86
v16
o2
v87
v40
o2
v88
v46
o2
v89
v52
o2
v90
v58
o2
v91
v64
o2
v92
v70
C17
o16
o54
7
o16
o2
v86
v17
o2
v87
v41
o2
v88
v47
o2
v89
v53
o2
v90
v59
o2
v91
v65
o2
v92
v71
C18
o16
o54
7
o16
o2
v93
v18
o2
v94
v36
o2
v95
v42
o2
v96
v48
o2
v97
v54
o2
v98
v60
o2
v99
v66
C19
o16
o54
7
o16
o2
v93
v19
o2
v94
v37
o2
v95
v43
o2
v96
v49
o2
v97
v55
o2
v98
v61
o2
v99
v67
C20
o16
o54
7
o16
o2
v93
v20
o2
v94
v38
o2
v95
v44
o2
v96
v50
o2
v97
v56
o2
v98
v62
o2
v99
v68
C21
o16
o54
7
o16
o2
v93
v21
o2
v94
v39
o2
v95
v45
o2
v96
v51
o2
v97
v57
o2
v98
v63
o2
v99
v69
C22
o16
o54
7
o16
o2
v93
v22
o2
v94
v40
o2
v95
v46
o2
v96
v52
o2
v97
v58
o2
v98
v64
o2
v99
v70
C23
o16
o54
7
o16
o2
v93
v23
o2
v94
v41
o2
v95
v47
o2
v96
v53
o2
v97
v59
o2
v98
v65
o2
v99
v71
C24
o16
o54
7
o16
o2
v100
v24
o2
v101
v36
o2
v102
v42
o2
v103
v48
o2
v104
v54
o2
v105
v60
o2
v106
v66
C25
o16
o54
7
o16
o2
v100
v25
o2
v101
v37
o2
v102
v43
o2
v103
v49
o2
v104
v55
o2
v105
v61
o2
v106
v67
C26
o16
o54
7
o16
o2
v100
v26
o2
v101
v38
o2
v102
v44
o2
v103
v50
o2
v104
v56
o2
v105
v62
o2
v106
v68
C27
o16
o54
7
o16
o2
v100
v27
o2
v101
v39
o2
v102
v45
o2
v103
v51
o2
v104
v57
o2
v105
v63
o2
v106
v69
C28
o16
o54
7
o16
o2
v100
v28
o2
v101
v40
o2
v102
v46
o2
v103
v52
o2
v104
v58
o2
v105
v64
o2
v106
v70
C29
o16
o54
7
o16
o2
v100
v29
o2
v101
v41
o2
v102
v47
o2
v103
v53
o2
v104
v59
o2
v105
v65
o2
v106
v71
C30
o16
o54
7
o16
o2
v107
v30
o2
v108
v36
o2
v109
v42
o2
v110
v48
o2
v111
v54
o2
v112
v60
o2
v113
v66
C31
o16
o54
7
o16
o2
v107
v31
o2
v108
v37
o2
v109
v43
o2
v110
v49
o2
v111
v55
o2
v112
v61
o2
v113
v67
C32
o16
o54
7
o16
o2
v107
v32
o2
v108
v38
o2
v109
v44
o2
v110
v50
o2
v111
v56
o2
v112
v62
o2
v113
v68
C33
o16
o54
7
o16
o2
v107
v33
o2
v108
v39
o2
v109
v45
o2
v110
v51
o2
v111
v57
o2
v112
v63
o2
v113
v69
C34
o16
o54
7
o16
o2
v107
v34
o2
v108
v40
o2
v109
v46
o2
v110
v52
o2
v111
v58
o2
v112
v64
o2
v113
v70
C35
o16
o54
7
o16
o2
v107
v35
o2
v108
v41
o2
v109
v47
o2
v110
v53
o2
v111
v59
o2
v112
v65
o2
v113
v71
C36
o1
o2
v72
v0
o2
v72
v36
C37
o1
o2
v72
v1
o2
v72
v37
C38
o1
o2
v72
v2
o2
v72
v38
C39
o1
o2
v72
v3
o2
v72
v39
C40
o1
o2
v72
v4
o2
v72
v40
C41
o1
o2
v72
v5
o2
v72
v41
C42
o1
o2
v79
v6
o2
v79
v42
C43
o1
o2
v79
v7
o2
v79
v43
C44
o1
o2
v79
v8
o2
v79
v44
C45
o1
o2
v79
v9
o2
v79
v45
C46
o1
o2
v79
v10
o2
v79
v46
C47
o1
o2
v79
v11
o2
v79
v47
C48
o1
o2
v86
v12
o2
v86
v48
C49
o1
o2
v86
v13
o2
v86
v49
C50
o1
o2
v86
v14
o2
v86
v50
C51
o1
o2
v86
v15
o2
v86
v51
C52
o1
o2
v86
v16
o2
v86
v52
C53
o1
o2
v86
v17
o2
v86
v53
C54
o1
o2
v93
v18
o2
v93
v54
C55
o1
o2
v93
v19
o2
v93
v55
C56
o1
o2
v93
v20
o2
v93
v56
C57
o1
o2
v93
v21
o2
v93
v57
C58
o1
o2
v93
v22
o2
v93
v58
C59
o1
o2
v93
v23
o2
v93
v59
C60
o1
o2
v100
v24
o2
v100
v60
C61
o1
o2
v100
v25
o2
v100
v61
C62
o1
o2
v100
v26
o2
v100
v62
C63
o1
o2
v100
v27
o2
v100
v63
C64
o1
o2
v100
v28
o2
v100
v64
C65
o1
o2
v100
v29
o2
v100
v65
C66
o1
o2
v107
v30
o2
v107
v66
C67
o1
o2
v107
v31
o2
v107
v67
C68
o1
o2
v107
v32
o2
v107
v68
C69
o1
o2
v107
v33
o2
v107
v69
C70
o1
o2
v107
v34
o2
v107
v70
C71
o1
o2
v107
v35
o2
v107
v71
C72
n0
C73
n0
C74
n0
C75
n0
C76
n0
C77
n0
C78
n0
C79
n0
C80
n0
C81
n0
C82
n0
C83
n0
O0 0
n0
k131
2
4
6
8
10
12
14
16
18
20
22
24
26
28
30
32
34
36
38
40
42
44
46
48
50
52
54
56
58
60
62
64
66
68
70
72
79
86
93
100
107
114
121
128
135
142
149
156
163
170
177
184
191
198
205
212
219
226
233
240
247
254
261
268
275
282
289
296
303
310
317
324
338
346
354
362
370
378
386
400
408
416
424
432
440
448
462
470
478
486
494
502
510
524
532
540
548
556
564
572
586
594
602
610
618
626
634
648
656
664
672
680
688
696
701
706
711
716
721
726
732
738
744
750
756
762
763
764
765
766
767
J0 16
0 0
36 0
42 0
48 0
54 0
60 0
66 0
72 0
73 0
74 0
75 0
76 0
77 0
78 0
114 -4
120 -4
J1 16
1 0
37 0
43 0
49 0
55 0
61 0
67 0
72 0
73 0
74 0
75 0
76 0
77 0
78 0
114 -5
120 -6
J2 15
2 0
38 0
44 0
50 0
56 0
62 0
68 0
72 0
73 0
74 0
75 0
76 0
77 0
78 0
120 -2
J3 16
3 0
39 0
45 0
51 0
57 0
63 0
69 0
72 0
73 0
74 0
75 0
76 0
77 0
78 0
114 -8
120 -7
J4 15
4 0
40 0
46 0
52 0
58 0
64 0
70 0
72 0
73 0
74 0
75 0
76 0
77 0
78 0
120 -2
J5 15
5 0
41 0
47 0
53 0
59 0
65 0
71 0
72 0
73 0
74 0
75 0
76 0
77 0
78 0
114 -4
J6 16
6 0
36 0
42 0
48 0
54 0
60 0
66 0
79 0
80 0
81 0
82 0
83 0
84 0
85 0
115 -4
121 -4
J7 16
7 0
37 0
43 0
49 0
55 0
61 0
67 0
79 0
80 0
81 0
82 0
83 0
84 0
85 0
115 -5
121 -6
J8 15
8 0
38 0
44 0
50 0
56 0
62 0
68 0
79 0
80 0
81 0
82 0
83 0
84 0
85 0
121 -2
J9 16
9 0
39 0
45 0
51 0
57 0
63 0
69 0
79 0
80 0
81 0
82 0
83 0
84 0
85 0
115 -8
121 -7
J10 15
10 0
40 0
46 0
52 0
58 0
64 0
70 0
79 0
80 0
81 0
82 0
83 0
84 0
85 0
121 -2
J11 15
11 0
41 0
47 0
53 0
59 0
65 0
71 0
79 0
80 0
81 0
82 0
83 0
84 0
85 0
115 -4
J12 16
12 0
36 0
42 0
48 0
54 0
60 0
66 0
86 0
87 0
88 0
89 0
90 0
91 0
92 0
116 -4
122 -4
J13 16
13 0
37 0
43 0
49 0
55 0
61 0
67 0
86 0
87 0
88 0
89 0
90 0
91 0
92 0
116 -5
122 -6
J14 15
14 0
38 0
44 0
50 0
56 0
62 0
68 0
86 0
87 0
88 0
89 0
90 0
91 0
92 0
122 -2
J15 16
15 0
39 0
45 0
51 0
57 0
63 0
69 0
86 0
87 0
88 0
89 0
90 0
91 0
92 0
116 -8
122 -7
J16 15
16 0
40 0
46 0
52 0
58 0
64 0
70 0
86 0
87 0
88 0
89 0
90 0
91 0
92 0
122 -2
J17 15
17 0
41 0
47 0
53 0
59 0
65 0
71 0
86 0
87 0
88 0
89 0
90 0
91 0
92 0
116 -4
J18 16
18 0
36 0
42 0
48 0
54 0
60 0
66 0
93 0
94 0
95 0
96 0
97 0
98 0
99 0
117 -4
123 -4
J19 16
19 0
37 0
43 0
49 0
55 0
61 0
67 0
93 0
94 0
95 0
96 0
97 0
98 0
99 0
117 -5
123 -6
J20 15
20 0
38 0
44 0
50 0
56 0
62 0
68 0
93 0
94 0
95 0
96 0
97 0
98 0
99 0
123 -2
J21 16
21 0
39 0
45 0
51 0
57 0
63 0
69 0
93 0
94 0
95 0
96 0
97 0
98 0
99 0
117 -8
123 -7
J22 15
22 0
40 0
46 0
52 0
58 0
64 0
70 0
93 0
94 0
95 0
96 0
97 0
98 0
99 0
123 -2
J23 15
23 0
41 0
47 0
53 0
59 0
65 0
71 0
93 0
94 0
95 0
96 0
97 0
98 0
99 0
117 -4
J24 16
24 0
36 0
42 0
48 0
54 0
60 0
66 0
100 0
101 0
102 0
103 0
104 0
105 0
106 0
118 -4
124 -4
J25 16
25 0
37 0
43 0
49 0
55 0
61 0
67 0
100 0
101 0
102 0
103 0
104 0
105 0
106 0
118 -5
124 -6
J26 15
26 0
38 0
44 0
50 0
56 0
62 0
68 0
100 0
101 0
102 0
103 0
104 0
105 0
106 0
124 -2
J27 16
27 0
39 0
45 0
51 0
57 0
63 0
69 0
100 0
101 0
102 0
103 0
104 0
105 0
106 0
118 -8
124 -7
J28 15
28 0
40 0
46 0
52 0
58 0
64 0
70 0
100 0
101 0
102 0
103 0
104 0
105 0
106 0
124 -2
J29 15
29 0
41 0
47 0
53 0
59 0
65 0
71 0
100 0
101 0
102 0
103 0
104 0
105 0
106 0
118 -4
J30 16
30 0
36 0
42 0
48 0
54 0
60 0
66 0
107 0
108 0
109 0
110 0
111 0
112 0
113 0
119 -4
125 -4
J31 16
31 0
37 0
43 0
49 0
55 0
61 0
67 0
107 0
108 0
109 0
110 0
111 0
112 0
113 0
119 -5
125 -6
J32 15
32 0
38 0
44 0
50 0
56 0
62 0
68 0
107 0
108 0
109 0
110 0
111 0
112 0
113 0
125 -2
J33 16
33 0
39 0
45 0
51 0
57 0
63 0
69 0
107 0
108 0
109 0
110 0
111 0
112 0
113 0
119 -8
125 -7
J34 15
34 0
40 0
46 0
52 0
58 0
64 0
70 0
107 0
108 0
109 0
110 0
111 0
112 0
113 0
125 -2
J35 15
35 0
41 0
47 0
53 0
59 0
65 0
71 0
107 0
108 0
109 0
110 0
111 0
112 0
113 0
119 -4
J36 3
0 0
36 0
72 0
J37 3
1 0
37 0
72 0
J38 3
2 0
38 0
72 0
J39 3
3 0
39 0
72 0
J40 3
4 0
40 0
72 0
J41 3
5 0
41 0
72 0
J42 3
6 0
42 0
79 0
J43 3
7 0
43 0
79 0
J44 3
8 0
44 0
79 0
J45 3
9 0
45 0
79 0
J46 3
10 0
46 0
79 0
J47 3
11 0
47 0
79 0
J48 3
12 0
48 0
86 0
J49 3
13 0
49 0
86 0
J50 3
14 0
50 0
86 0
J51 3
15 0
51 0
86 0
J52 3
16 0
52 0
86 0
J53 3
17 0
53 0
86 0
J54 3
18 0
54 0
93 0
J55 3
19 0
55 0
93 0
J56 3
20 0
56 0
93 0
J57 3
21 0
57 0
93 0
J58 3
22 0
58 0
93 0
J59 3
23 0
59 0
93 0
J60 3
24 0
60 0
100 0
J61 3
25 0
61 0
100 0
J62 3
26 0
62 0
100 0
J63 3
27 0
63 0
100 0
J64 3
28 0
64 0
100 0
J65 3
29 0
65 0
100 0
J66 3
30 0
66 0
107 0
J67 3
31 0
67 0
107 0
J68 3
32 0
68 0
107 0
J69 3
33 0
69 0
107 0
J70 3
34 0
70 0
107 0
J71 3
35 0
71 0
107 0
J72 9
72 1
73 -1
74 -1
75 -1
76 -1
77 -1
78 -1
114 -1
120 -1
J73 9
79 1
80 -1
81 -1
82 -1
83 -1
84 -1
85 -1
115 -1
121 -1
J74 9
86 1
87 -1
88 -1
89 -1
90 -1
91 -1
92 -1
116 -1
122 -1
J75 9
93 1
94 -1
95 -1
96 -1
97 -1
98 -1
99 -1
117 -1
123 -1
J76 9
100 1
101 -1
102 -1
103 -1
104 -1
105 -1
106 -1
118 -1
124 -1
J77 9
107 1
108 -1
109 -1
110 -1
111 -1
112 -1
113 -1
119 -1
125 -1
J78 8
72 1
73 -1
80 -1
87 -1
94 -1
101 -1
108 -1
126 -1
J79 8
74 -1
79 1
81 -1
88 -1
95 -1
102 -1
109 -1
127 -1
J80 8
75 -1
82 -1
86 1
89 -1
96 -1
103 -1
110 -1
128 -1
J81 8
76 -1
83 -1
90 -1
93 1
97 -1
104 -1
111 -1
129 -1
J82 8
77 -1
84 -1
91 -1
98 -1
100 1
105 -1
112 -1
130 -1
J83 8
78 -1
85 -1
92 -1
99 -1
106 -1
107 1
113 -1
131 -1
G0 12
114 1
115 1
116 1
117 1
118 1
119 1
120 1
121 1
122 1
123 1
124 1
125 1
